c b=9,c=1025
p cnf 28 37
9 -18 0
9 -28 0
-9 18 0
-9 28 0
8 -17 0
8 -27 0
-8 17 0
-8 27 0
7 -16 0
7 -26 0
-7 16 0
-7 26 0
6 -15 0
6 -25 0
-6 15 0
-6 25 0
5 -14 0
5 -24 0
-5 14 0
-5 24 0
4 -13 0
4 -23 0
-4 13 0
-4 23 0
3 -12 0
3 -22 0
-3 12 0
-3 22 0
2 -11 0
2 -21 0
-2 11 0
-2 21 0
1 -10 0
1 -20 0
-1 10 0
-1 20 0
-19 0
